543 5
10 10 10 10 10 

0 0 0 0 0 0 5 2 14 26 38 50 
0 0 0 0 0 0 3 3 4 5 
5 0 0 0 4 0 4 9 8 7 6 
8 0 0 0 7 0 3 10 8 7 
4 0 0 0 10 0 3 9 8 6 
5 0 0 0 10 0 2 12 11 
8 0 0 0 8 0 2 12 11 
4 0 0 0 4 0 1 11 
4 0 0 0 7 0 1 12 
4 0 0 0 10 0 1 11 
6 0 0 0 10 0 2 13 174 
10 0 0 0 5 0 1 13 
0 0 0 0 0 0 1 62 
0 0 0 0 0 0 6 15 16 17 18 19 21 
7 0 0 0 0 4 3 24 23 20 
5 0 0 0 0 6 3 24 23 20 
8 0 0 0 0 9 2 24 20 
3 0 0 0 0 7 2 24 20 
9 0 0 0 0 10 2 23 22 
6 0 0 0 0 3 1 22 
8 0 0 0 0 10 1 23 
9 0 0 0 0 10 1 25 
8 0 0 0 0 7 2 25 199 
3 0 0 0 0 9 1 25 
0 0 0 0 0 0 1 62 
0 0 0 0 0 0 6 27 28 30 35 36 121 
6 5 0 0 0 0 2 34 33 
10 4 0 0 0 0 1 29 
8 10 0 0 0 0 1 31 
2 8 0 0 0 0 1 32 
2 10 0 0 0 0 1 37 
6 3 0 0 0 0 1 37 
1 10 0 0 0 0 1 37 
9 8 0 0 0 0 1 37 
3 8 0 0 0 0 1 37 
3 9 0 0 0 0 1 37 
0 0 0 0 0 0 1 62 
0 0 0 0 0 0 4 39 40 42 43 
4 0 0 0 2 0 5 48 47 44 41 337 
5 0 0 0 8 0 3 46 45 44 
8 0 0 0 8 0 2 46 45 
6 0 0 0 8 0 2 45 44 
8 0 0 0 7 0 1 44 
3 0 0 0 10 0 1 49 
1 0 0 0 8 0 1 49 
3 0 0 0 7 0 1 49 
7 0 0 0 7 0 1 49 
3 0 0 0 10 0 1 49 
0 0 0 0 0 0 1 62 
0 0 0 0 0 0 3 51 52 53 
7 0 0 0 0 4 3 56 55 54 
1 0 0 0 0 10 3 56 55 54 
9 0 0 0 0 5 2 55 54 
6 0 0 0 0 7 4 60 59 58 57 
7 0 0 0 0 10 5 60 59 58 57 82 
1 0 0 0 0 5 4 60 59 58 57 
10 0 0 0 0 6 1 61 
10 0 0 0 0 10 1 61 
1 0 0 0 0 8 1 61 
1 0 0 0 0 10 1 61 
0 0 0 0 0 0 1 62 
0 0 0 0 0 0 5 63 105 147 189 201 
0 0 0 0 0 0 3 64 68 70 
10 0 5 5 6 1 4 73 67 66 65 
2 0 5 5 9 8 7 92 80 78 77 76 74 72 
6 0 10 6 9 9 2 75 69 
2 0 5 8 6 7 5 95 80 75 74 71 
2 0 9 4 5 10 4 80 78 74 71 
7 0 4 6 5 10 4 95 80 74 71 
3 0 9 10 10 9 4 77 74 73 72 
6 0 7 5 8 7 9 92 89 87 84 83 82 81 79 77 
3 0 8 9 6 10 8 89 88 87 85 84 83 82 79 
3 0 10 9 5 8 4 92 89 85 75 
9 0 9 8 9 8 5 89 88 87 86 85 
6 0 5 6 10 8 4 87 84 81 79 
5 0 8 8 10 6 5 90 89 88 87 84 
2 0 8 7 7 6 3 88 86 85 
5 0 10 9 10 10 3 95 88 81 
3 0 10 10 7 7 3 98 90 86 
9 0 10 7 9 5 2 88 85 
1 0 4 10 10 10 3 103 97 90 
3 0 6 2 8 10 3 103 98 90 
10 0 4 10 8 7 3 103 97 90 
2 0 4 10 6 8 3 103 97 91 
3 0 7 10 10 7 2 103 90 
8 0 10 6 9 7 3 97 94 93 
2 0 10 3 10 4 3 97 96 93 
4 0 4 5 8 6 2 98 91 
7 0 8 5 8 10 2 96 93 
1 0 5 10 8 7 1 91 
4 0 10 9 6 7 3 102 96 94 
6 0 7 1 10 7 2 93 459 
5 0 7 10 5 10 4 103 102 100 99 
9 0 9 7 4 7 3 101 100 99 
8 0 9 10 10 7 3 101 100 99 
3 0 9 8 6 5 2 101 100 
2 0 10 8 3 6 2 100 99 
7 0 6 10 4 10 2 101 99 
6 0 7 7 5 10 1 104 
5 0 7 7 8 10 1 104 
9 0 10 10 7 4 1 104 
9 0 8 10 7 6 1 104 
10 0 7 10 9 6 1 104 
0 0 0 0 0 0 1 543 
0 0 0 0 0 0 3 106 109 112 
2 5 0 4 1 3 5 115 114 110 108 107 
4 8 0 8 10 7 2 117 111 
6 10 0 8 7 10 5 145 122 117 116 113 
6 9 0 7 10 5 5 122 120 119 116 113 
7 7 0 10 7 10 8 134 125 124 122 121 120 119 118 
10 6 0 4 6 4 5 145 122 120 116 113 
6 8 0 7 3 8 3 118 115 114 
9 7 0 6 5 8 8 134 130 128 126 125 124 123 118 
7 8 0 10 8 10 4 134 128 127 117 
2 10 0 10 6 6 6 130 128 126 125 124 120 
3 7 0 8 10 6 4 133 130 128 127 
10 8 0 10 10 6 3 126 123 120 
4 4 0 3 10 10 3 133 129 127 
9 10 0 3 7 8 3 145 133 123 
4 6 0 7 10 5 3 139 131 129 
8 8 0 6 7 6 3 130 128 126 
9 8 0 5 8 8 2 133 127 
4 9 0 6 9 7 3 144 138 131 
1 5 0 9 10 10 3 144 139 131 
6 6 0 7 8 8 3 144 138 131 
5 7 0 7 10 8 3 144 138 132 
6 5 0 10 6 10 2 144 131 
2 4 0 9 7 9 4 144 142 138 136 
5 4 0 10 4 4 3 143 138 135 
1 10 0 10 7 6 2 136 135 
7 5 0 7 7 7 1 132 
2 9 0 5 5 8 3 142 137 136 
4 10 0 6 10 9 3 142 139 137 
2 8 0 9 6 10 1 135 
10 7 0 9 7 8 4 144 142 141 140 
6 8 0 7 5 10 2 143 140 
2 9 0 9 10 10 2 141 140 
8 9 0 9 9 6 2 141 140 
6 7 0 10 9 7 1 143 
3 9 0 4 8 7 1 146 
2 8 0 10 6 7 1 146 
6 10 0 4 5 10 1 146 
9 8 0 9 7 6 1 146 
5 10 0 10 10 6 1 146 
9 4 0 8 10 7 1 146 
0 0 0 0 0 0 1 543 
0 0 0 0 0 0 5 148 151 153 154 158 
3 5 0 2 4 5 3 156 152 149 
8 6 0 5 9 9 2 160 150 
3 3 0 10 6 9 6 187 165 163 161 157 155 
2 10 0 5 5 9 5 187 165 163 161 155 
5 3 0 6 7 8 9 187 176 173 170 167 164 163 162 161 
1 5 0 10 7 6 7 176 175 174 168 167 159 156 
5 10 0 4 8 6 6 176 168 167 162 161 157 
3 10 0 8 10 10 9 176 175 174 173 172 170 168 167 159 
3 10 0 7 6 8 4 172 170 163 160 
9 7 0 5 10 10 4 175 174 172 166 
5 9 0 10 5 5 4 173 172 168 163 
3 6 0 4 7 6 4 181 180 177 166 
6 8 0 10 6 6 3 177 173 165 
7 9 0 7 9 8 2 175 166 
6 5 0 10 5 8 2 181 165 
7 9 0 3 6 7 3 181 177 169 
7 9 0 6 4 9 3 178 174 172 
10 9 0 3 8 4 3 186 180 169 
8 9 0 10 7 6 2 186 169 
2 5 0 7 10 6 2 186 169 
9 8 0 8 10 8 2 180 169 
10 8 0 10 8 10 1 171 
2 10 0 4 10 7 4 186 185 184 180 
10 10 0 5 10 7 3 185 179 178 
8 5 0 9 10 8 3 186 180 179 
3 9 0 10 4 8 3 180 179 178 
4 8 0 10 10 10 2 184 177 
10 5 0 10 5 9 2 181 178 
6 7 0 6 6 5 1 177 
2 9 0 9 5 8 4 186 185 183 182 
5 10 0 6 8 10 2 183 182 
9 7 0 10 8 5 2 184 182 
9 6 0 10 10 8 2 183 182 
10 10 0 8 9 10 1 184 
8 6 0 9 6 7 1 188 
10 10 0 10 10 7 1 188 
8 9 0 8 6 10 1 188 
4 4 0 7 9 8 1 188 
5 5 0 9 10 4 1 188 
8 7 0 10 7 6 1 188 
0 0 0 0 0 0 1 543 
0 0 0 0 0 0 6 190 191 192 195 198 199 
7 0 3 0 0 0 2 197 194 
10 0 8 0 0 0 2 197 194 
6 0 10 0 0 0 1 193 
9 0 7 0 0 0 2 197 196 
5 0 6 0 0 0 1 196 
2 0 7 0 0 0 1 196 
8 0 7 0 0 0 1 200 
5 0 7 0 0 0 1 200 
8 0 10 0 0 0 1 200 
2 0 10 0 0 0 1 200 
0 0 0 0 0 0 5 243 275 307 339 371 
0 0 0 0 0 0 6 202 206 207 209 214 220 
10 0 3 7 2 7 3 210 205 203 
9 0 4 9 6 10 4 224 217 211 204 
1 0 6 9 10 6 8 241 234 231 226 223 218 215 208 
9 0 10 6 4 4 9 241 231 228 226 225 218 216 215 212 
9 0 10 5 7 8 4 228 223 216 210 
4 0 9 10 8 4 6 234 231 227 226 219 213 
2 0 10 3 7 8 6 239 228 227 225 219 213 
10 0 4 6 10 6 6 234 231 230 223 217 216 
2 0 9 5 10 4 5 230 225 224 217 215 
2 0 8 10 10 10 5 239 234 233 227 216 
5 0 6 7 9 4 3 240 239 217 
10 0 6 5 6 5 2 233 216 
3 0 5 10 6 9 2 226 221 
1 0 7 5 7 10 3 240 239 222 
5 0 10 8 8 8 2 240 221 
8 0 5 10 7 8 2 233 221 
3 0 8 5 8 7 2 239 221 
2 0 7 10 9 8 2 240 222 
2 0 9 7 8 8 3 235 234 227 
7 0 4 6 7 7 1 222 
6 0 9 5 10 10 3 237 232 229 
5 0 10 5 10 9 4 238 237 236 232 
7 0 7 7 9 8 2 236 226 
8 0 9 6 10 9 3 240 237 233 
1 0 10 10 6 8 2 238 233 
1 0 5 9 4 9 1 230 
6 0 5 8 10 4 1 230 
4 0 7 7 10 10 2 238 236 
9 0 10 10 6 6 2 240 237 
2 0 5 10 6 8 2 239 236 
2 0 6 8 7 8 1 235 
10 0 8 10 4 8 1 235 
3 0 5 8 6 5 1 236 
6 0 9 10 7 9 1 242 
2 0 9 10 5 8 1 242 
6 0 10 5 5 7 1 242 
6 0 9 10 10 10 1 242 
2 0 8 8 10 6 1 242 
9 0 10 4 10 10 1 242 
6 0 9 7 6 7 1 242 
0 0 0 0 0 0 1 543 
0 0 0 0 0 0 6 244 245 246 247 248 249 
4 0 5 0 1 3 3 252 251 250 
4 0 5 0 5 9 3 259 252 250 
5 0 6 0 8 6 3 259 252 250 
7 0 6 0 5 7 3 256 255 251 
7 0 10 0 8 7 3 256 255 251 
8 0 5 0 5 10 2 251 250 
6 0 10 0 10 6 5 260 258 255 254 253 
6 0 9 0 9 10 5 260 259 258 254 253 
2 0 10 0 7 9 2 257 256 
9 0 7 0 10 8 3 263 262 261 
2 0 7 0 10 4 3 263 262 261 
2 0 8 0 6 10 3 263 262 261 
3 0 10 0 8 3 3 263 262 261 
9 0 7 0 10 8 3 263 262 261 
10 0 6 0 10 7 2 262 261 
2 0 10 0 10 9 3 265 264 263 
9 0 9 0 7 6 1 261 
10 0 5 0 9 10 3 269 265 264 
10 0 7 0 7 6 4 273 269 267 264 
3 0 7 0 7 9 4 273 269 267 266 
7 0 7 0 6 8 2 268 266 
6 0 10 0 10 10 2 273 267 
2 0 10 0 8 7 2 272 270 
1 0 6 0 4 7 1 268 
9 0 5 0 10 9 2 272 271 
3 0 10 0 8 10 2 272 271 
7 0 6 0 6 8 1 271 
9 0 8 0 6 6 1 274 
9 0 6 0 8 6 1 274 
2 0 8 0 7 7 1 274 
0 0 0 0 0 0 1 543 
0 0 0 0 0 0 6 276 277 278 279 282 305 
2 2 4 0 1 0 5 288 287 286 283 280 
9 9 4 0 8 0 4 304 286 283 280 
5 8 9 0 9 0 3 283 281 280 
10 8 10 0 7 0 3 289 286 280 
8 9 9 0 10 0 3 296 292 284 
8 6 6 0 6 0 4 301 288 287 285 
2 10 8 0 5 0 4 303 288 287 285 
6 7 10 0 8 0 2 296 285 
6 7 8 0 8 0 1 285 
8 6 10 0 8 0 5 302 300 299 295 291 
1 6 8 0 10 0 3 298 296 290 
8 5 6 0 4 0 4 300 299 298 291 
9 6 10 0 9 0 3 300 295 291 
3 8 7 0 6 0 3 299 298 294 
8 10 10 0 8 0 1 291 
1 8 5 0 10 0 1 293 
2 10 10 0 5 0 2 301 298 
4 7 10 0 5 0 1 294 
5 10 8 0 8 0 1 297 
7 6 5 0 8 0 1 298 
6 9 10 0 10 0 1 301 
7 10 6 0 5 0 1 306 
4 10 10 0 9 0 1 306 
7 7 7 0 6 0 1 306 
3 10 6 0 10 0 1 306 
2 5 8 0 9 0 1 306 
8 6 3 0 10 0 1 306 
10 5 6 0 10 0 1 306 
7 10 7 0 8 0 1 306 
9 5 5 0 5 0 1 306 
0 0 0 0 0 0 1 543 
0 0 0 0 0 0 6 308 309 310 311 314 337 
3 0 3 0 4 1 5 320 319 318 315 312 
7 0 5 0 9 8 4 336 318 315 312 
2 0 7 0 6 10 3 315 313 312 
9 0 6 0 5 7 3 322 318 312 
2 0 10 0 10 6 3 328 324 316 
5 0 9 0 9 10 4 333 320 319 317 
1 0 7 0 6 6 4 335 334 320 319 
1 0 9 0 4 8 6 334 332 331 328 327 323 
5 0 7 0 10 10 1 317 
8 0 8 0 5 8 5 334 332 331 327 323 
5 0 8 0 6 9 3 330 328 321 
3 0 5 0 10 8 3 332 327 325 
6 0 8 0 10 7 3 332 331 323 
10 0 5 0 10 10 1 323 
9 0 6 0 10 9 2 331 326 
6 0 10 0 10 6 1 325 
7 0 6 0 9 7 2 333 330 
5 0 7 0 7 6 1 326 
2 0 10 0 7 8 1 329 
5 0 9 0 8 6 1 330 
7 0 6 0 10 6 1 333 
4 0 8 0 8 4 1 338 
1 0 6 0 6 6 1 338 
7 0 10 0 9 9 1 338 
3 0 10 0 6 7 1 338 
8 0 10 0 6 9 1 338 
4 0 10 0 6 7 1 338 
10 0 5 0 4 7 1 338 
6 0 7 0 7 10 1 338 
3 0 8 0 8 10 1 338 
0 0 0 0 0 0 1 543 
0 0 0 0 0 0 6 340 341 342 343 344 347 
10 2 5 2 0 0 4 354 348 346 345 
5 8 5 8 0 0 5 357 355 354 348 345 
1 8 3 6 0 0 4 355 354 348 345 
3 6 9 9 0 0 2 346 345 
2 9 9 9 0 0 3 350 349 346 
2 4 10 7 0 0 4 353 352 351 349 
1 8 10 5 0 0 4 357 355 352 351 
3 10 10 7 0 0 4 355 353 351 349 
3 9 4 10 0 0 1 350 
9 8 7 8 0 0 3 359 358 356 
10 9 10 10 0 0 3 359 358 356 
2 8 8 6 0 0 2 359 356 
10 5 9 5 0 0 2 359 356 
9 8 8 10 0 0 2 358 356 
9 4 9 8 0 0 2 359 356 
7 9 8 5 0 0 1 356 
10 7 8 7 0 0 4 369 366 361 360 
7 9 8 10 0 0 2 360 358 
1 7 10 9 0 0 5 369 366 364 363 362 
2 8 10 9 0 0 4 366 363 362 360 
9 5 6 7 0 0 2 368 364 
5 10 3 9 0 0 2 363 362 
9 10 10 6 0 0 2 368 367 
8 8 3 10 0 0 2 368 367 
9 7 6 6 0 0 1 365 
6 7 7 10 0 0 1 367 
8 7 9 7 0 0 1 368 
6 10 7 7 0 0 1 370 
9 8 4 3 0 0 1 370 
6 7 10 10 0 0 1 370 
0 0 0 0 0 0 1 543 
0 0 0 0 0 0 4 372 375 376 381 
5 0 0 1 0 0 3 380 374 373 
6 0 0 10 0 0 2 378 377 
3 0 0 8 0 0 1 377 
6 0 0 8 0 0 1 379 
2 0 0 10 0 0 1 377 
8 0 0 7 0 0 1 382 
10 0 0 10 0 0 1 382 
5 0 0 6 0 0 1 382 
7 0 0 6 0 0 1 382 
10 0 0 9 0 0 1 382 
0 0 0 0 0 0 5 383 405 417 439 461 
0 0 0 0 0 0 7 384 387 390 391 401 402 403 
1 2 5 0 0 0 4 400 399 394 385 
7 7 4 0 0 0 3 398 397 386 
10 7 4 0 0 0 3 395 392 388 
4 7 9 0 0 0 2 392 389 
1 9 7 0 0 0 1 393 
6 10 8 0 0 0 1 394 
10 10 8 0 0 0 1 396 
9 10 9 0 0 0 1 396 
4 10 4 0 0 0 1 404 
6 6 10 0 0 0 1 404 
3 5 10 0 0 0 1 404 
10 10 6 0 0 0 1 404 
2 8 10 0 0 0 1 404 
7 5 7 0 0 0 1 404 
2 8 10 0 0 0 1 404 
10 7 9 0 0 0 1 404 
5 6 6 0 0 0 1 404 
8 7 8 0 0 0 1 404 
5 10 10 0 0 0 1 404 
6 6 6 0 0 0 1 404 
0 0 0 0 0 0 1 543 
0 0 0 0 0 0 5 406 407 408 409 410 
10 0 0 0 0 4 3 413 412 411 
2 0 0 0 0 8 2 413 411 
8 0 0 0 0 7 2 415 412 
2 0 0 0 0 9 2 415 412 
9 0 0 0 0 8 1 411 
2 0 0 0 0 5 2 415 414 
1 0 0 0 0 6 1 414 
5 0 0 0 0 10 1 414 
7 0 0 0 0 9 1 416 
9 0 0 0 0 9 1 416 
0 0 0 0 0 0 5 483 495 507 519 531 
0 0 0 0 0 0 8 418 419 420 421 422 423 424 427 
9 0 4 0 1 0 3 430 428 426 
9 0 10 0 10 0 3 430 426 425 
2 0 4 0 6 0 2 430 425 
1 0 7 0 7 0 2 430 425 
8 0 9 0 9 0 2 430 425 
5 0 5 0 4 0 2 430 429 
2 0 5 0 9 0 2 430 429 
2 0 3 0 9 0 2 432 429 
8 0 9 0 10 0 2 435 429 
9 0 7 0 6 0 2 435 429 
10 0 8 0 5 0 3 437 435 431 
1 0 10 0 10 0 2 437 431 
6 0 5 0 9 0 2 434 432 
1 0 10 0 9 0 3 436 434 433 
2 0 10 0 5 0 2 435 433 
10 0 10 0 9 0 1 438 
6 0 7 0 5 0 1 438 
8 0 9 0 9 0 1 438 
6 0 8 0 10 0 1 438 
7 0 10 0 8 0 1 438 
0 0 0 0 0 0 1 543 
0 0 0 0 0 0 8 440 441 443 444 445 457 458 459 
6 0 4 0 0 1 3 454 448 442 
1 0 10 0 0 8 7 456 454 453 452 451 448 447 
7 0 4 0 0 3 3 451 450 446 
4 0 10 0 0 5 4 454 453 450 447 
4 0 6 0 0 10 3 455 453 448 
7 0 7 0 0 9 3 451 450 448 
2 0 9 0 0 10 2 452 447 
1 0 10 0 0 9 1 449 
1 0 9 0 0 9 1 449 
6 0 4 0 0 8 1 460 
2 0 7 0 0 5 1 460 
4 0 6 0 0 10 1 460 
8 0 9 0 0 10 1 460 
7 0 8 0 0 5 1 460 
1 0 8 0 0 9 1 460 
7 0 10 0 0 10 1 460 
6 0 3 0 0 6 1 460 
10 0 9 0 0 10 1 460 
8 0 8 0 0 4 1 460 
5 0 9 0 0 9 1 460 
0 0 0 0 0 0 1 543 
0 0 0 0 0 0 5 462 463 464 465 469 
4 0 0 4 6 0 4 473 472 470 466 
8 0 0 6 5 0 4 481 472 470 467 
6 0 0 6 7 0 3 473 470 466 
1 0 0 4 9 0 5 480 473 472 470 468 
1 0 0 10 2 0 3 481 480 468 
3 0 0 5 8 0 2 480 468 
9 0 0 10 9 0 4 478 475 474 471 
3 0 0 9 6 0 4 481 480 477 472 
7 0 0 10 5 0 3 478 474 471 
7 0 0 10 4 0 2 479 477 
5 0 0 10 10 0 2 478 476 
5 0 0 9 8 0 2 477 476 
4 0 0 4 5 0 1 476 
2 0 0 10 10 0 1 476 
10 0 0 5 10 0 1 482 
1 0 0 10 10 0 1 482 
2 0 0 7 10 0 1 482 
3 0 0 7 7 0 1 482 
8 0 0 4 10 0 1 482 
7 0 0 10 9 0 1 482 
0 0 0 0 0 0 1 543 
0 0 0 0 0 0 4 484 485 487 488 
4 0 0 4 0 0 3 492 489 486 
1 0 0 10 0 0 3 492 490 489 
7 0 0 5 0 0 3 493 491 490 
2 0 0 10 0 0 3 492 491 490 
5 0 0 6 0 0 2 493 490 
2 0 0 5 0 0 1 491 
6 0 0 10 0 0 1 494 
9 0 0 9 0 0 1 494 
4 0 0 7 0 0 1 494 
8 0 0 9 0 0 1 494 
0 0 0 0 0 0 1 543 
0 0 0 0 0 0 6 496 497 498 500 501 502 
6 0 0 0 0 5 3 505 503 499 
3 0 0 0 0 10 2 503 499 
10 0 0 0 0 8 2 505 503 
6 0 0 0 0 6 1 504 
7 0 0 0 0 10 1 504 
9 0 0 0 0 10 1 503 
1 0 0 0 0 6 1 503 
8 0 0 0 0 3 1 506 
7 0 0 0 0 8 1 506 
3 0 0 0 0 9 1 506 
0 0 0 0 0 0 1 543 
0 0 0 0 0 0 5 508 509 510 516 517 
7 0 0 0 4 0 4 515 514 513 512 
3 0 0 0 5 0 3 515 514 511 
1 0 0 0 9 0 2 513 512 
4 0 0 0 9 0 1 512 
6 0 0 0 10 0 1 518 
5 0 0 0 10 0 1 518 
1 0 0 0 10 0 1 518 
2 0 0 0 5 0 1 518 
4 0 0 0 7 0 1 518 
6 0 0 0 6 0 1 518 
0 0 0 0 0 0 1 543 
0 0 0 0 0 0 4 520 521 522 523 
9 0 5 0 0 0 3 526 525 524 
5 0 8 0 0 0 3 526 525 524 
1 0 9 0 0 0 2 526 525 
2 0 8 0 0 0 2 525 524 
3 0 10 0 0 0 3 529 528 527 
5 0 10 0 0 0 2 529 527 
7 0 7 0 0 0 2 528 527 
5 0 4 0 0 0 1 530 
7 0 10 0 0 0 1 530 
4 0 4 0 0 0 1 530 
0 0 0 0 0 0 1 543 
0 0 0 0 0 0 3 532 533 537 
4 0 0 1 0 0 3 536 535 534 
1 0 0 5 0 0 1 534 
4 0 0 10 0 0 4 541 540 539 538 
10 0 0 6 0 0 4 541 540 539 538 
4 0 0 7 0 0 4 541 540 539 538 
5 0 0 7 0 0 1 538 
10 0 0 10 0 0 1 542 
3 0 0 9 0 0 1 542 
1 0 0 10 0 0 1 542 
9 0 0 10 0 0 1 542 
0 0 0 0 0 0 1 543 
0 0 0 0 0 0 0 
